p cnf 14 27
-14 -13 11 0
14 13 -10 0
-14 10 8 0
-14 8 -5 0
-14 -8 3 0
14 -8 -3 0
-13 12 -6 0
-13 -12 6 0
13 -11 -6 0
-13 -10 9 0
-13 -10 -8 0
-13 10 1 0
-13 7 -5 0
-12 -11 -7 0
12 9 -6 0
12 9 4 0
12 -7 -3 0
12 7 -1 0
12 -6 4 0
-11 -10 -2 0
-10 -8 5 0
8 -7 5 0
-8 -6 -5 0
7 -6 4 0
6 5 -3 0
5 -4 -2 0
4 -3 2 0
